139252.0	72000.0	95466	78	71	12	4
140817.0	66000.0	97521	78	71	11	3
144119.0	60000.0	97796	78	71	10	3
151741.0	54000.0	106078	83	52	9	3
153438.0	48000.0	110571	61	55	8	4
157282.0	42000.0	110290	111	51	7	3
161396.0	36000.0	114142	111	36	6	3
167963.0	30000.0	119427	73	71	5	4
169302.0	24000.0	119687	111	15	4	3
177256.0	18000.0	124610	111	100	3	4
186812.0	12000.0	129741	124	84	2	4
196593.0	6000.0	138863	132	44	1	4
204618.0	0.0	143908	132	133	0	5
